p sp 1600 2264
a 1 41 1
a 1 2 1
a 2 42 1
a 2 1 1
a 4 44 1
a 6 46 1
a 6 7 1
a 7 47 1
a 7 6 1
a 9 10 1
a 10 9 1
a 10 11 1
a 11 51 1
a 11 10 1
a 14 54 1
a 14 15 1
a 15 55 1
a 15 14 1
a 17 18 1
a 18 17 1
a 18 19 1
a 19 59 1
a 19 18 1
a 19 20 1
a 20 19 1
a 23 24 1
a 24 64 1
a 24 23 1
a 27 28 1
a 28 68 1
a 28 27 1
a 28 29 1
a 29 69 1
a 29 28 1
a 29 30 1
a 30 29 1
a 34 74 1
a 34 35 1
a 35 75 1
a 35 34 1
a 35 36 1
a 36 76 1
a 36 35 1
a 39 79 1
a 41 1 1
a 41 42 1
a 42 2 1
a 42 82 1
a 42 41 1
a 42 43 1
a 43 42 1
a 43 44 1
a 44 4 1
a 44 84 1
a 44 43 1
a 44 45 1
a 45 85 1
a 45 44 1
a 45 46 1
a 46 6 1
a 46 86 1
a 46 45 1
a 46 47 1
a 47 7 1
a 47 87 1
a 47 46 1
a 51 11 1
a 51 91 1
a 53 54 1
a 54 14 1
a 54 53 1
a 54 55 1
a 55 15 1
a 55 54 1
a 55 56 1
a 56 96 1
a 56 55 1
a 59 19 1
a 64 24 1
a 68 28 1
a 68 108 1
a 68 69 1
a 69 29 1
a 69 68 1
a 71 111 1
a 74 34 1
a 74 114 1
a 74 75 1
a 75 35 1
a 75 115 1
a 75 74 1
a 75 76 1
a 76 36 1
a 76 116 1
a 76 75 1
a 79 39 1
a 79 119 1
a 79 80 1
a 80 120 1
a 80 79 1
a 82 42 1
a 84 44 1
a 84 85 1
a 85 45 1
a 85 125 1
a 85 84 1
a 85 86 1
a 86 46 1
a 86 85 1
a 86 87 1
a 87 47 1
a 87 127 1
a 87 86 1
a 87 88 1
a 88 87 1
a 88 89 1
a 89 129 1
a 89 88 1
a 91 51 1
a 91 131 1
a 91 92 1
a 92 91 1
a 96 56 1
a 96 136 1
a 100 140 1
a 103 143 1
a 107 147 1
a 107 108 1
a 108 68 1
a 108 148 1
a 108 107 1
a 110 150 1
a 110 111 1
a 111 71 1
a 111 110 1
a 113 114 1
a 114 74 1
a 114 113 1
a 114 115 1
a 115 75 1
a 115 114 1
a 115 116 1
a 116 76 1
a 116 156 1
a 116 115 1
a 118 158 1
a 118 119 1
a 119 79 1
a 119 118 1
a 119 120 1
a 120 80 1
a 120 160 1
a 120 119 1
a 125 85 1
a 125 165 1
a 127 87 1
a 127 167 1
a 129 89 1
a 129 130 1
a 130 170 1
a 130 129 1
a 130 131 1
a 131 91 1
a 131 130 1
a 134 174 1
a 136 96 1
a 136 176 1
a 139 179 1
a 139 140 1
a 140 100 1
a 140 180 1
a 140 139 1
a 140 141 1
a 141 140 1
a 141 142 1
a 142 141 1
a 142 143 1
a 143 103 1
a 143 183 1
a 143 142 1
a 143 144 1
a 144 143 1
a 144 145 1
a 145 144 1
a 145 146 1
a 146 186 1
a 146 145 1
a 146 147 1
a 147 107 1
a 147 187 1
a 147 146 1
a 147 148 1
a 148 108 1
a 148 147 1
a 150 110 1
a 156 116 1
a 156 196 1
a 158 118 1
a 158 198 1
a 160 120 1
a 160 200 1
a 163 164 1
a 164 163 1
a 164 165 1
a 165 125 1
a 165 205 1
a 165 164 1
a 167 127 1
a 167 207 1
a 170 130 1
a 170 210 1
a 172 212 1
a 172 173 1
a 173 172 1
a 173 174 1
a 174 134 1
a 174 214 1
a 174 173 1
a 176 136 1
a 176 216 1
a 176 177 1
a 177 176 1
a 177 178 1
a 178 218 1
a 178 177 1
a 178 179 1
a 179 139 1
a 179 178 1
a 179 180 1
a 180 140 1
a 180 220 1
a 180 179 1
a 183 143 1
a 186 146 1
a 186 187 1
a 187 147 1
a 187 227 1
a 187 186 1
a 189 229 1
a 195 235 1
a 195 196 1
a 196 156 1
a 196 195 1
a 198 158 1
a 198 238 1
a 198 199 1
a 199 239 1
a 199 198 1
a 199 200 1
a 200 160 1
a 200 240 1
a 200 199 1
a 201 241 1
a 205 165 1
a 205 245 1
a 205 206 1
a 206 246 1
a 206 205 1
a 206 207 1
a 207 167 1
a 207 206 1
a 209 249 1
a 209 210 1
a 210 170 1
a 210 209 1
a 212 172 1
a 212 252 1
a 214 174 1
a 214 215 1
a 215 255 1
a 215 214 1
a 215 216 1
a 216 176 1
a 216 256 1
a 216 215 1
a 218 178 1
a 220 180 1
a 220 260 1
a 220 221 1
a 221 261 1
a 221 220 1
a 221 222 1
a 222 221 1
a 224 264 1
a 224 225 1
a 225 265 1
a 225 224 1
a 227 187 1
a 229 189 1
a 229 269 1
a 229 230 1
a 230 270 1
a 230 229 1
a 234 235 1
a 235 195 1
a 235 234 1
a 237 277 1
a 237 238 1
a 238 198 1
a 238 278 1
a 238 237 1
a 238 239 1
a 239 199 1
a 239 238 1
a 239 240 1
a 240 200 1
a 240 239 1
a 241 201 1
a 241 242 1
a 242 282 1
a 242 241 1
a 242 243 1
a 243 242 1
a 245 205 1
a 245 246 1
a 246 206 1
a 246 286 1
a 246 245 1
a 248 288 1
a 248 249 1
a 249 209 1
a 249 289 1
a 249 248 1
a 252 212 1
a 252 292 1
a 255 215 1
a 255 295 1
a 255 256 1
a 256 216 1
a 256 296 1
a 256 255 1
a 256 257 1
a 257 256 1
a 259 299 1
a 259 260 1
a 260 220 1
a 260 300 1
a 260 259 1
a 260 261 1
a 261 221 1
a 261 301 1
a 261 260 1
a 263 303 1
a 263 264 1
a 264 224 1
a 264 304 1
a 264 263 1
a 264 265 1
a 265 225 1
a 265 305 1
a 265 264 1
a 265 266 1
a 266 306 1
a 266 265 1
a 269 229 1
a 269 309 1
a 269 270 1
a 270 230 1
a 270 269 1
a 270 271 1
a 271 311 1
a 271 270 1
a 277 237 1
a 277 317 1
a 277 278 1
a 278 238 1
a 278 277 1
a 282 242 1
a 282 322 1
a 284 324 1
a 286 246 1
a 286 287 1
a 287 286 1
a 287 288 1
a 288 248 1
a 288 328 1
a 288 287 1
a 288 289 1
a 289 249 1
a 289 329 1
a 289 288 1
a 289 290 1
a 290 330 1
a 290 289 1
a 290 291 1
a 291 290 1
a 291 292 1
a 292 252 1
a 292 332 1
a 292 291 1
a 292 293 1
a 293 333 1
a 293 292 1
a 293 294 1
a 294 334 1
a 294 293 1
a 294 295 1
a 295 255 1
a 295 335 1
a 295 294 1
a 295 296 1
a 296 256 1
a 296 336 1
a 296 295 1
a 298 338 1
a 298 299 1
a 299 259 1
a 299 339 1
a 299 298 1
a 299 300 1
a 300 260 1
a 300 340 1
a 300 299 1
a 300 301 1
a 301 261 1
a 301 341 1
a 301 300 1
a 301 302 1
a 302 301 1
a 302 303 1
a 303 263 1
a 303 302 1
a 303 304 1
a 304 264 1
a 304 303 1
a 304 305 1
a 305 265 1
a 305 304 1
a 305 306 1
a 306 266 1
a 306 346 1
a 306 305 1
a 306 307 1
a 307 306 1
a 309 269 1
a 309 349 1
a 311 271 1
a 311 351 1
a 311 312 1
a 312 311 1
a 315 355 1
a 317 277 1
a 317 357 1
a 319 359 1
a 319 320 1
a 320 360 1
a 320 319 1
a 321 322 1
a 322 282 1
a 322 321 1
a 322 323 1
a 323 322 1
a 323 324 1
a 324 284 1
a 324 323 1
a 324 325 1
a 325 365 1
a 325 324 1
a 328 288 1
a 328 368 1
a 328 329 1
a 329 289 1
a 329 369 1
a 329 328 1
a 329 330 1
a 330 290 1
a 330 370 1
a 330 329 1
a 332 292 1
a 332 372 1
a 332 333 1
a 333 293 1
a 333 373 1
a 333 332 1
a 333 334 1
a 334 294 1
a 334 374 1
a 334 333 1
a 334 335 1
a 335 295 1
a 335 375 1
a 335 334 1
a 335 336 1
a 336 296 1
a 336 335 1
a 338 298 1
a 338 339 1
a 339 299 1
a 339 338 1
a 339 340 1
a 340 300 1
a 340 339 1
a 340 341 1
a 341 301 1
a 341 381 1
a 341 340 1
a 346 306 1
a 348 349 1
a 349 309 1
a 349 389 1
a 349 348 1
a 349 350 1
a 350 390 1
a 350 349 1
a 350 351 1
a 351 311 1
a 351 391 1
a 351 350 1
a 353 393 1
a 355 315 1
a 355 395 1
a 355 356 1
a 356 355 1
a 356 357 1
a 357 317 1
a 357 356 1
a 359 319 1
a 359 360 1
a 360 320 1
a 360 359 1
a 365 325 1
a 368 328 1
a 368 408 1
a 368 369 1
a 369 329 1
a 369 368 1
a 369 370 1
a 370 330 1
a 370 410 1
a 370 369 1
a 370 371 1
a 371 370 1
a 371 372 1
a 372 332 1
a 372 371 1
a 372 373 1
a 373 333 1
a 373 413 1
a 373 372 1
a 373 374 1
a 374 334 1
a 374 373 1
a 374 375 1
a 375 335 1
a 375 415 1
a 375 374 1
a 377 417 1
a 381 341 1
a 381 421 1
a 381 382 1
a 382 422 1
a 382 381 1
a 382 383 1
a 383 382 1
a 389 349 1
a 389 390 1
a 390 350 1
a 390 430 1
a 390 389 1
a 390 391 1
a 391 351 1
a 391 390 1
a 391 392 1
a 392 432 1
a 392 391 1
a 392 393 1
a 393 353 1
a 393 433 1
a 393 392 1
a 395 355 1
a 403 443 1
a 408 368 1
a 410 370 1
a 410 450 1
a 413 373 1
a 413 453 1
a 415 375 1
a 415 455 1
a 415 416 1
a 416 415 1
a 416 417 1
a 417 377 1
a 417 416 1
a 417 418 1
a 418 458 1
a 418 417 1
a 421 381 1
a 421 461 1
a 421 422 1
a 422 382 1
a 422 462 1
a 422 421 1
a 426 427 1
a 427 426 1
a 427 428 1
a 428 468 1
a 428 427 1
a 430 390 1
a 432 392 1
a 432 472 1
a 432 433 1
a 433 393 1
a 433 473 1
a 433 432 1
a 437 477 1
a 441 481 1
a 443 403 1
a 443 483 1
a 443 444 1
a 444 484 1
a 444 443 1
a 446 486 1
a 446 447 1
a 447 487 1
a 447 446 1
a 450 410 1
a 450 490 1
a 452 453 1
a 453 413 1
a 453 493 1
a 453 452 1
a 453 454 1
a 454 494 1
a 454 453 1
a 454 455 1
a 455 415 1
a 455 495 1
a 455 454 1
a 458 418 1
a 458 498 1
a 458 459 1
a 459 458 1
a 459 460 1
a 460 459 1
a 460 461 1
a 461 421 1
a 461 501 1
a 461 460 1
a 461 462 1
a 462 422 1
a 462 502 1
a 462 461 1
a 465 505 1
a 468 428 1
a 468 469 1
a 469 509 1
a 469 468 1
a 472 432 1
a 472 512 1
a 472 473 1
a 473 433 1
a 473 513 1
a 473 472 1
a 473 474 1
a 474 514 1
a 474 473 1
a 476 477 1
a 477 437 1
a 477 517 1
a 477 476 1
a 477 478 1
a 478 518 1
a 478 477 1
a 481 441 1
a 481 521 1
a 481 482 1
a 482 522 1
a 482 481 1
a 482 483 1
a 483 443 1
a 483 482 1
a 483 484 1
a 484 444 1
a 484 524 1
a 484 483 1
a 486 446 1
a 486 526 1
a 486 487 1
a 487 447 1
a 487 486 1
a 487 488 1
a 488 487 1
a 488 489 1
a 489 488 1
a 489 490 1
a 490 450 1
a 490 489 1
a 493 453 1
a 493 494 1
a 494 454 1
a 494 534 1
a 494 493 1
a 494 495 1
a 495 455 1
a 495 494 1
a 498 458 1
a 501 461 1
a 501 502 1
a 502 462 1
a 502 542 1
a 502 501 1
a 505 465 1
a 505 545 1
a 505 506 1
a 506 505 1
a 509 469 1
a 509 510 1
a 510 550 1
a 510 509 1
a 510 511 1
a 511 551 1
a 511 510 1
a 511 512 1
a 512 472 1
a 512 511 1
a 512 513 1
a 513 473 1
a 513 512 1
a 513 514 1
a 514 474 1
a 514 554 1
a 514 513 1
a 514 515 1
a 515 555 1
a 515 514 1
a 517 477 1
a 517 557 1
a 517 518 1
a 518 478 1
a 518 558 1
a 518 517 1
a 518 519 1
a 519 518 1
a 519 520 1
a 520 519 1
a 521 481 1
a 521 522 1
a 522 482 1
a 522 521 1
a 524 484 1
a 524 564 1
a 524 525 1
a 525 565 1
a 525 524 1
a 525 526 1
a 526 486 1
a 526 566 1
a 526 525 1
a 534 494 1
a 534 574 1
a 539 540 1
a 540 539 1
a 542 502 1
a 542 582 1
a 542 543 1
a 543 583 1
a 543 542 1
a 543 544 1
a 544 584 1
a 544 543 1
a 544 545 1
a 545 505 1
a 545 544 1
a 547 587 1
a 550 510 1
a 550 590 1
a 550 551 1
a 551 511 1
a 551 591 1
a 551 550 1
a 554 514 1
a 554 594 1
a 554 555 1
a 555 515 1
a 555 554 1
a 555 556 1
a 556 555 1
a 556 557 1
a 557 517 1
a 557 597 1
a 557 556 1
a 557 558 1
a 558 518 1
a 558 557 1
a 563 603 1
a 563 564 1
a 564 524 1
a 564 604 1
a 564 563 1
a 564 565 1
a 565 525 1
a 565 605 1
a 565 564 1
a 565 566 1
a 566 526 1
a 566 565 1
a 568 608 1
a 568 569 1
a 569 609 1
a 569 568 1
a 571 611 1
a 573 574 1
a 574 534 1
a 574 614 1
a 574 573 1
a 578 618 1
a 582 542 1
a 582 622 1
a 582 583 1
a 583 543 1
a 583 623 1
a 583 582 1
a 583 584 1
a 584 544 1
a 584 624 1
a 584 583 1
a 586 587 1
a 587 547 1
a 587 627 1
a 587 586 1
a 587 588 1
a 588 628 1
a 588 587 1
a 588 589 1
a 589 588 1
a 589 590 1
a 590 550 1
a 590 630 1
a 590 589 1
a 590 591 1
a 591 551 1
a 591 590 1
a 591 592 1
a 592 591 1
a 594 554 1
a 597 557 1
a 597 637 1
a 599 600 1
a 600 599 1
a 601 641 1
a 603 563 1
a 603 604 1
a 604 564 1
a 604 603 1
a 604 605 1
a 605 565 1
a 605 645 1
a 605 604 1
a 607 647 1
a 607 608 1
a 608 568 1
a 608 607 1
a 608 609 1
a 609 569 1
a 609 649 1
a 609 608 1
a 609 610 1
a 610 609 1
a 610 611 1
a 611 571 1
a 611 610 1
a 614 574 1
a 614 654 1
a 614 615 1
a 615 614 1
a 615 616 1
a 616 656 1
a 616 615 1
a 618 578 1
a 618 658 1
a 618 619 1
a 619 618 1
a 622 582 1
a 622 662 1
a 622 623 1
a 623 583 1
a 623 663 1
a 623 622 1
a 623 624 1
a 624 584 1
a 624 664 1
a 624 623 1
a 624 625 1
a 625 624 1
a 627 587 1
a 627 667 1
a 627 628 1
a 628 588 1
a 628 627 1
a 630 590 1
a 637 597 1
a 637 638 1
a 638 678 1
a 638 637 1
a 641 601 1
a 641 681 1
a 641 642 1
a 642 682 1
a 642 641 1
a 645 605 1
a 645 685 1
a 647 607 1
a 649 609 1
a 649 689 1
a 654 614 1
a 654 694 1
a 656 616 1
a 656 696 1
a 656 657 1
a 657 697 1
a 657 656 1
a 657 658 1
a 658 618 1
a 658 698 1
a 658 657 1
a 660 700 1
a 660 661 1
a 661 660 1
a 661 662 1
a 662 622 1
a 662 702 1
a 662 661 1
a 662 663 1
a 663 623 1
a 663 703 1
a 663 662 1
a 663 664 1
a 664 624 1
a 664 704 1
a 664 663 1
a 666 706 1
a 666 667 1
a 667 627 1
a 667 666 1
a 669 709 1
a 671 711 1
a 671 672 1
a 672 712 1
a 672 671 1
a 674 714 1
a 678 638 1
a 678 718 1
a 678 679 1
a 679 719 1
a 679 678 1
a 679 680 1
a 680 679 1
a 681 641 1
a 681 721 1
a 681 682 1
a 682 642 1
a 682 722 1
a 682 681 1
a 684 724 1
a 684 685 1
a 685 645 1
a 685 725 1
a 685 684 1
a 688 689 1
a 689 649 1
a 689 729 1
a 689 688 1
a 694 654 1
a 694 734 1
a 694 695 1
a 695 694 1
a 695 696 1
a 696 656 1
a 696 736 1
a 696 695 1
a 696 697 1
a 697 657 1
a 697 737 1
a 697 696 1
a 697 698 1
a 698 658 1
a 698 738 1
a 698 697 1
a 698 699 1
a 699 739 1
a 699 698 1
a 699 700 1
a 700 660 1
a 700 740 1
a 700 699 1
a 702 662 1
a 702 742 1
a 702 703 1
a 703 663 1
a 703 743 1
a 703 702 1
a 703 704 1
a 704 664 1
a 704 744 1
a 704 703 1
a 704 705 1
a 705 745 1
a 705 704 1
a 705 706 1
a 706 666 1
a 706 746 1
a 706 705 1
a 709 669 1
a 709 749 1
a 711 671 1
a 711 712 1
a 712 672 1
a 712 752 1
a 712 711 1
a 714 674 1
a 714 754 1
a 714 715 1
a 715 755 1
a 715 714 1
a 715 716 1
a 716 756 1
a 716 715 1
a 716 717 1
a 717 757 1
a 717 716 1
a 717 718 1
a 718 678 1
a 718 717 1
a 718 719 1
a 719 679 1
a 719 759 1
a 719 718 1
a 721 681 1
a 721 761 1
a 721 722 1
a 722 682 1
a 722 721 1
a 724 684 1
a 724 764 1
a 724 725 1
a 725 685 1
a 725 765 1
a 725 724 1
a 725 726 1
a 726 725 1
a 726 727 1
a 727 726 1
a 729 689 1
a 729 769 1
a 732 772 1
a 734 694 1
a 734 774 1
a 736 696 1
a 736 776 1
a 736 737 1
a 737 697 1
a 737 777 1
a 737 736 1
a 737 738 1
a 738 698 1
a 738 737 1
a 738 739 1
a 739 699 1
a 739 738 1
a 739 740 1
a 740 700 1
a 740 780 1
a 740 739 1
a 740 741 1
a 741 781 1
a 741 740 1
a 741 742 1
a 742 702 1
a 742 782 1
a 742 741 1
a 742 743 1
a 743 703 1
a 743 742 1
a 743 744 1
a 744 704 1
a 744 743 1
a 744 745 1
a 745 705 1
a 745 744 1
a 745 746 1
a 746 706 1
a 746 786 1
a 746 745 1
a 746 747 1
a 747 787 1
a 747 746 1
a 749 709 1
a 749 750 1
a 750 790 1
a 750 749 1
a 752 712 1
a 752 753 1
a 753 793 1
a 753 752 1
a 753 754 1
a 754 714 1
a 754 794 1
a 754 753 1
a 754 755 1
a 755 715 1
a 755 754 1
a 755 756 1
a 756 716 1
a 756 796 1
a 756 755 1
a 756 757 1
a 757 717 1
a 757 797 1
a 757 756 1
a 759 719 1
a 759 799 1
a 761 721 1
a 761 801 1
a 763 764 1
a 764 724 1
a 764 763 1
a 764 765 1
a 765 725 1
a 765 805 1
a 765 764 1
a 769 729 1
a 772 732 1
a 772 812 1
a 772 773 1
a 773 813 1
a 773 772 1
a 773 774 1
a 774 734 1
a 774 773 1
a 776 736 1
a 776 816 1
a 776 777 1
a 777 737 1
a 777 776 1
a 780 740 1
a 780 820 1
a 780 781 1
a 781 741 1
a 781 821 1
a 781 780 1
a 781 782 1
a 782 742 1
a 782 781 1
a 786 746 1
a 786 787 1
a 787 747 1
a 787 827 1
a 787 786 1
a 790 750 1
a 790 830 1
a 793 753 1
a 793 794 1
a 794 754 1
a 794 793 1
a 796 756 1
a 796 836 1
a 796 797 1
a 797 757 1
a 797 796 1
a 797 798 1
a 798 838 1
a 798 797 1
a 798 799 1
a 799 759 1
a 799 839 1
a 799 798 1
a 801 761 1
a 805 765 1
a 805 845 1
a 805 806 1
a 806 805 1
a 811 812 1
a 812 772 1
a 812 852 1
a 812 811 1
a 812 813 1
a 813 773 1
a 813 812 1
a 815 855 1
a 815 816 1
a 816 776 1
a 816 815 1
a 818 858 1
a 818 819 1
a 819 818 1
a 819 820 1
a 820 780 1
a 820 860 1
a 820 819 1
a 820 821 1
a 821 781 1
a 821 820 1
a 827 787 1
a 827 867 1
a 827 828 1
a 828 868 1
a 828 827 1
a 828 829 1
a 829 828 1
a 829 830 1
a 830 790 1
a 830 829 1
a 835 875 1
a 835 836 1
a 836 796 1
a 836 835 1
a 838 798 1
a 838 878 1
a 838 839 1
a 839 799 1
a 839 838 1
a 839 840 1
a 840 839 1
a 842 882 1
a 844 884 1
a 844 845 1
a 845 805 1
a 845 885 1
a 845 844 1
a 848 849 1
a 849 889 1
a 849 848 1
a 849 850 1
a 850 849 1
a 852 812 1
a 854 894 1
a 854 855 1
a 855 815 1
a 855 854 1
a 858 818 1
a 858 898 1
a 860 820 1
a 860 900 1
a 862 902 1
a 867 827 1
a 867 907 1
a 867 868 1
a 868 828 1
a 868 908 1
a 868 867 1
a 871 911 1
a 873 913 1
a 875 835 1
a 875 915 1
a 877 878 1
a 878 838 1
a 878 877 1
a 882 842 1
a 882 922 1
a 882 883 1
a 883 882 1
a 883 884 1
a 884 844 1
a 884 883 1
a 884 885 1
a 885 845 1
a 885 925 1
a 885 884 1
a 885 886 1
a 886 926 1
a 886 885 1
a 886 887 1
a 887 927 1
a 887 886 1
a 889 849 1
a 889 929 1
a 893 894 1
a 894 854 1
a 894 934 1
a 894 893 1
a 897 937 1
a 897 898 1
a 898 858 1
a 898 897 1
a 900 860 1
a 900 901 1
a 901 900 1
a 901 902 1
a 902 862 1
a 902 942 1
a 902 901 1
a 902 903 1
a 903 943 1
a 903 902 1
a 903 904 1
a 904 944 1
a 904 903 1
a 906 946 1
a 906 907 1
a 907 867 1
a 907 906 1
a 907 908 1
a 908 868 1
a 908 948 1
a 908 907 1
a 911 871 1
a 911 912 1
a 912 952 1
a 912 911 1
a 912 913 1
a 913 873 1
a 913 912 1
a 915 875 1
a 915 916 1
a 916 956 1
a 916 915 1
a 922 882 1
a 925 885 1
a 925 965 1
a 925 926 1
a 926 886 1
a 926 966 1
a 926 925 1
a 926 927 1
a 927 887 1
a 927 967 1
a 927 926 1
a 929 889 1
a 929 969 1
a 929 930 1
a 930 929 1
a 934 894 1
a 934 974 1
a 934 935 1
a 935 934 1
a 935 936 1
a 936 976 1
a 936 935 1
a 936 937 1
a 937 897 1
a 937 936 1
a 942 902 1
a 942 982 1
a 942 943 1
a 943 903 1
a 943 942 1
a 943 944 1
a 944 904 1
a 944 943 1
a 944 945 1
a 945 944 1
a 945 946 1
a 946 906 1
a 946 945 1
a 948 908 1
a 948 988 1
a 948 949 1
a 949 989 1
a 949 948 1
a 952 912 1
a 952 992 1
a 954 994 1
a 956 916 1
a 956 996 1
a 956 957 1
a 957 956 1
a 961 1001 1
a 963 1003 1
a 965 925 1
a 965 1005 1
a 965 966 1
a 966 926 1
a 966 1006 1
a 966 965 1
a 966 967 1
a 967 927 1
a 967 966 1
a 969 929 1
a 972 973 1
a 973 1013 1
a 973 972 1
a 973 974 1
a 974 934 1
a 974 1014 1
a 974 973 1
a 976 936 1
a 976 1016 1
a 979 1019 1
a 979 980 1
a 980 1020 1
a 980 979 1
a 980 981 1
a 981 1021 1
a 981 980 1
a 981 982 1
a 982 942 1
a 982 981 1
a 987 988 1
a 988 948 1
a 988 987 1
a 988 989 1
a 989 949 1
a 989 1029 1
a 989 988 1
a 991 992 1
a 992 952 1
a 992 1032 1
a 992 991 1
a 994 954 1
a 994 1034 1
a 996 956 1
a 998 1038 1
a 1000 1040 1
a 1001 961 1
a 1001 1002 1
a 1002 1042 1
a 1002 1001 1
a 1002 1003 1
a 1003 963 1
a 1003 1043 1
a 1003 1002 1
a 1005 965 1
a 1005 1045 1
a 1005 1006 1
a 1006 966 1
a 1006 1046 1
a 1006 1005 1
a 1008 1048 1
a 1011 1051 1
a 1013 973 1
a 1013 1014 1
a 1014 974 1
a 1014 1013 1
a 1016 976 1
a 1016 1056 1
a 1019 979 1
a 1019 1020 1
a 1020 980 1
a 1020 1060 1
a 1020 1019 1
a 1020 1021 1
a 1021 981 1
a 1021 1061 1
a 1021 1020 1
a 1024 1064 1
a 1029 989 1
a 1029 1069 1
a 1029 1030 1
a 1030 1070 1
a 1030 1029 1
a 1032 992 1
a 1032 1072 1
a 1032 1033 1
a 1033 1073 1
a 1033 1032 1
a 1033 1034 1
a 1034 994 1
a 1034 1033 1
a 1038 998 1
a 1038 1078 1
a 1040 1000 1
a 1040 1080 1
a 1042 1002 1
a 1042 1082 1
a 1042 1043 1
a 1043 1003 1
a 1043 1083 1
a 1043 1042 1
a 1043 1044 1
a 1044 1043 1
a 1044 1045 1
a 1045 1005 1
a 1045 1085 1
a 1045 1044 1
a 1045 1046 1
a 1046 1006 1
a 1046 1045 1
a 1046 1047 1
a 1047 1087 1
a 1047 1046 1
a 1047 1048 1
a 1048 1008 1
a 1048 1047 1
a 1048 1049 1
a 1049 1048 1
a 1051 1011 1
a 1051 1091 1
a 1051 1052 1
a 1052 1051 1
a 1056 1016 1
a 1056 1057 1
a 1057 1097 1
a 1057 1056 1
a 1057 1058 1
a 1058 1098 1
a 1058 1057 1
a 1060 1020 1
a 1060 1100 1
a 1060 1061 1
a 1061 1021 1
a 1061 1101 1
a 1061 1060 1
a 1061 1062 1
a 1062 1061 1
a 1064 1024 1
a 1064 1104 1
a 1066 1106 1
a 1069 1029 1
a 1069 1109 1
a 1069 1070 1
a 1070 1030 1
a 1070 1110 1
a 1070 1069 1
a 1070 1071 1
a 1071 1111 1
a 1071 1070 1
a 1071 1072 1
a 1072 1032 1
a 1072 1071 1
a 1072 1073 1
a 1073 1033 1
a 1073 1113 1
a 1073 1072 1
a 1076 1116 1
a 1076 1077 1
a 1077 1117 1
a 1077 1076 1
a 1077 1078 1
a 1078 1038 1
a 1078 1118 1
a 1078 1077 1
a 1080 1040 1
a 1082 1042 1
a 1082 1083 1
a 1083 1043 1
a 1083 1123 1
a 1083 1082 1
a 1085 1045 1
a 1085 1125 1
a 1087 1047 1
a 1087 1127 1
a 1090 1091 1
a 1091 1051 1
a 1091 1090 1
a 1093 1133 1
a 1095 1135 1
a 1097 1057 1
a 1097 1098 1
a 1098 1058 1
a 1098 1138 1
a 1098 1097 1
a 1100 1060 1
a 1100 1140 1
a 1100 1101 1
a 1101 1061 1
a 1101 1100 1
a 1103 1104 1
a 1104 1064 1
a 1104 1103 1
a 1106 1066 1
a 1106 1146 1
a 1106 1107 1
a 1107 1106 1
a 1107 1108 1
a 1108 1107 1
a 1108 1109 1
a 1109 1069 1
a 1109 1149 1
a 1109 1108 1
a 1109 1110 1
a 1110 1070 1
a 1110 1150 1
a 1110 1109 1
a 1110 1111 1
a 1111 1071 1
a 1111 1151 1
a 1111 1110 1
a 1113 1073 1
a 1113 1114 1
a 1114 1113 1
a 1116 1076 1
a 1116 1117 1
a 1117 1077 1
a 1117 1157 1
a 1117 1116 1
a 1117 1118 1
a 1118 1078 1
a 1118 1158 1
a 1118 1117 1
a 1118 1119 1
a 1119 1159 1
a 1119 1118 1
a 1123 1083 1
a 1123 1163 1
a 1123 1124 1
a 1124 1123 1
a 1124 1125 1
a 1125 1085 1
a 1125 1165 1
a 1125 1124 1
a 1127 1087 1
a 1127 1167 1
a 1129 1169 1
a 1132 1172 1
a 1132 1133 1
a 1133 1093 1
a 1133 1132 1
a 1135 1095 1
a 1135 1136 1
a 1136 1135 1
a 1138 1098 1
a 1138 1139 1
a 1139 1179 1
a 1139 1138 1
a 1139 1140 1
a 1140 1100 1
a 1140 1180 1
a 1140 1139 1
a 1146 1106 1
a 1146 1186 1
a 1149 1109 1
a 1149 1189 1
a 1149 1150 1
a 1150 1110 1
a 1150 1190 1
a 1150 1149 1
a 1150 1151 1
a 1151 1111 1
a 1151 1191 1
a 1151 1150 1
a 1151 1152 1
a 1152 1192 1
a 1152 1151 1
a 1155 1195 1
a 1157 1117 1
a 1157 1197 1
a 1157 1158 1
a 1158 1118 1
a 1158 1198 1
a 1158 1157 1
a 1158 1159 1
a 1159 1119 1
a 1159 1199 1
a 1159 1158 1
a 1159 1160 1
a 1160 1200 1
a 1160 1159 1
a 1162 1163 1
a 1163 1123 1
a 1163 1203 1
a 1163 1162 1
a 1165 1125 1
a 1165 1166 1
a 1166 1165 1
a 1166 1167 1
a 1167 1127 1
a 1167 1207 1
a 1167 1166 1
a 1169 1129 1
a 1169 1170 1
a 1170 1210 1
a 1170 1169 1
a 1170 1171 1
a 1171 1170 1
a 1171 1172 1
a 1172 1132 1
a 1172 1171 1
a 1179 1139 1
a 1179 1219 1
a 1179 1180 1
a 1180 1140 1
a 1180 1179 1
a 1180 1181 1
a 1181 1221 1
a 1181 1180 1
a 1185 1225 1
a 1185 1186 1
a 1186 1146 1
a 1186 1226 1
a 1186 1185 1
a 1189 1149 1
a 1189 1190 1
a 1190 1150 1
a 1190 1230 1
a 1190 1189 1
a 1190 1191 1
a 1191 1151 1
a 1191 1231 1
a 1191 1190 1
a 1191 1192 1
a 1192 1152 1
a 1192 1191 1
a 1192 1193 1
a 1193 1192 1
a 1193 1194 1
a 1194 1193 1
a 1194 1195 1
a 1195 1155 1
a 1195 1194 1
a 1197 1157 1
a 1197 1198 1
a 1198 1158 1
a 1198 1197 1
a 1198 1199 1
a 1199 1159 1
a 1199 1239 1
a 1199 1198 1
a 1199 1200 1
a 1200 1160 1
a 1200 1199 1
a 1201 1241 1
a 1203 1163 1
a 1203 1243 1
a 1203 1204 1
a 1204 1244 1
a 1204 1203 1
a 1207 1167 1
a 1207 1247 1
a 1207 1208 1
a 1208 1248 1
a 1208 1207 1
a 1210 1170 1
a 1210 1250 1
a 1214 1215 1
a 1215 1255 1
a 1215 1214 1
a 1218 1258 1
a 1218 1219 1
a 1219 1179 1
a 1219 1259 1
a 1219 1218 1
a 1221 1181 1
a 1221 1261 1
a 1221 1222 1
a 1222 1262 1
a 1222 1221 1
a 1224 1264 1
a 1224 1225 1
a 1225 1185 1
a 1225 1265 1
a 1225 1224 1
a 1225 1226 1
a 1226 1186 1
a 1226 1266 1
a 1226 1225 1
a 1230 1190 1
a 1230 1270 1
a 1230 1231 1
a 1231 1191 1
a 1231 1271 1
a 1231 1230 1
a 1236 1276 1
a 1239 1199 1
a 1239 1279 1
a 1241 1201 1
a 1241 1242 1
a 1242 1241 1
a 1242 1243 1
a 1243 1203 1
a 1243 1242 1
a 1243 1244 1
a 1244 1204 1
a 1244 1284 1
a 1244 1243 1
a 1246 1247 1
a 1247 1207 1
a 1247 1246 1
a 1247 1248 1
a 1248 1208 1
a 1248 1288 1
a 1248 1247 1
a 1250 1210 1
a 1250 1251 1
a 1251 1250 1
a 1251 1252 1
a 1252 1292 1
a 1252 1251 1
a 1252 1253 1
a 1253 1252 1
a 1255 1215 1
a 1255 1295 1
a 1255 1256 1
a 1256 1296 1
a 1256 1255 1
a 1258 1218 1
a 1258 1259 1
a 1259 1219 1
a 1259 1258 1
a 1259 1260 1
a 1260 1259 1
a 1260 1261 1
a 1261 1221 1
a 1261 1301 1
a 1261 1260 1
a 1261 1262 1
a 1262 1222 1
a 1262 1302 1
a 1262 1261 1
a 1262 1263 1
a 1263 1262 1
a 1263 1264 1
a 1264 1224 1
a 1264 1304 1
a 1264 1263 1
a 1264 1265 1
a 1265 1225 1
a 1265 1264 1
a 1265 1266 1
a 1266 1226 1
a 1266 1306 1
a 1266 1265 1
a 1270 1230 1
a 1270 1271 1
a 1271 1231 1
a 1271 1311 1
a 1271 1270 1
a 1271 1272 1
a 1272 1312 1
a 1272 1271 1
a 1274 1314 1
a 1276 1236 1
a 1279 1239 1
a 1279 1280 1
a 1280 1320 1
a 1280 1279 1
a 1284 1244 1
a 1284 1285 1
a 1285 1325 1
a 1285 1284 1
a 1288 1248 1
a 1288 1289 1
a 1289 1288 1
a 1292 1252 1
a 1295 1255 1
a 1295 1296 1
a 1296 1256 1
a 1296 1336 1
a 1296 1295 1
a 1301 1261 1
a 1301 1341 1
a 1301 1302 1
a 1302 1262 1
a 1302 1342 1
a 1302 1301 1
a 1304 1264 1
a 1304 1344 1
a 1306 1266 1
a 1306 1346 1
a 1306 1307 1
a 1307 1306 1
a 1307 1308 1
a 1308 1348 1
a 1308 1307 1
a 1308 1309 1
a 1309 1308 1
a 1311 1271 1
a 1311 1312 1
a 1312 1272 1
a 1312 1352 1
a 1312 1311 1
a 1312 1313 1
a 1313 1353 1
a 1313 1312 1
a 1313 1314 1
a 1314 1274 1
a 1314 1354 1
a 1314 1313 1
a 1320 1280 1
a 1320 1360 1
a 1321 1361 1
a 1325 1285 1
a 1325 1326 1
a 1326 1366 1
a 1326 1325 1
a 1326 1327 1
a 1327 1367 1
a 1327 1326 1
a 1336 1296 1
a 1336 1376 1
a 1341 1301 1
a 1341 1381 1
a 1341 1342 1
a 1342 1302 1
a 1342 1341 1
a 1342 1343 1
a 1343 1383 1
a 1343 1342 1
a 1343 1344 1
a 1344 1304 1
a 1344 1384 1
a 1344 1343 1
a 1346 1306 1
a 1348 1308 1
a 1348 1388 1
a 1350 1390 1
a 1352 1312 1
a 1352 1392 1
a 1352 1353 1
a 1353 1313 1
a 1353 1393 1
a 1353 1352 1
a 1353 1354 1
a 1354 1314 1
a 1354 1394 1
a 1354 1353 1
a 1354 1355 1
a 1355 1395 1
a 1355 1354 1
a 1358 1398 1
a 1358 1359 1
a 1359 1358 1
a 1359 1360 1
a 1360 1320 1
a 1360 1400 1
a 1360 1359 1
a 1361 1321 1
a 1361 1401 1
a 1363 1403 1
a 1366 1326 1
a 1366 1406 1
a 1366 1367 1
a 1367 1327 1
a 1367 1407 1
a 1367 1366 1
a 1367 1368 1
a 1368 1408 1
a 1368 1367 1
a 1368 1369 1
a 1369 1368 1
a 1373 1413 1
a 1373 1374 1
a 1374 1414 1
a 1374 1373 1
a 1374 1375 1
a 1375 1374 1
a 1375 1376 1
a 1376 1336 1
a 1376 1375 1
a 1379 1419 1
a 1381 1341 1
a 1381 1421 1
a 1383 1343 1
a 1383 1384 1
a 1384 1344 1
a 1384 1424 1
a 1384 1383 1
a 1384 1385 1
a 1385 1384 1
a 1387 1427 1
a 1387 1388 1
a 1388 1348 1
a 1388 1428 1
a 1388 1387 1
a 1390 1350 1
a 1390 1430 1
a 1392 1352 1
a 1392 1432 1
a 1392 1393 1
a 1393 1353 1
a 1393 1433 1
a 1393 1392 1
a 1393 1394 1
a 1394 1354 1
a 1394 1393 1
a 1394 1395 1
a 1395 1355 1
a 1395 1435 1
a 1395 1394 1
a 1395 1396 1
a 1396 1436 1
a 1396 1395 1
a 1396 1397 1
a 1397 1396 1
a 1397 1398 1
a 1398 1358 1
a 1398 1438 1
a 1398 1397 1
a 1400 1360 1
a 1401 1361 1
a 1401 1402 1
a 1402 1442 1
a 1402 1401 1
a 1402 1403 1
a 1403 1363 1
a 1403 1443 1
a 1403 1402 1
a 1403 1404 1
a 1404 1403 1
a 1406 1366 1
a 1406 1446 1
a 1406 1407 1
a 1407 1367 1
a 1407 1447 1
a 1407 1406 1
a 1407 1408 1
a 1408 1368 1
a 1408 1448 1
a 1408 1407 1
a 1411 1412 1
a 1412 1452 1
a 1412 1411 1
a 1412 1413 1
a 1413 1373 1
a 1413 1453 1
a 1413 1412 1
a 1413 1414 1
a 1414 1374 1
a 1414 1413 1
a 1418 1458 1
a 1418 1419 1
a 1419 1379 1
a 1419 1459 1
a 1419 1418 1
a 1419 1420 1
a 1420 1419 1
a 1420 1421 1
a 1421 1381 1
a 1421 1420 1
a 1421 1422 1
a 1422 1421 1
a 1424 1384 1
a 1424 1464 1
a 1427 1387 1
a 1427 1428 1
a 1428 1388 1
a 1428 1468 1
a 1428 1427 1
a 1428 1429 1
a 1429 1469 1
a 1429 1428 1
a 1429 1430 1
a 1430 1390 1
a 1430 1470 1
a 1430 1429 1
a 1430 1431 1
a 1431 1471 1
a 1431 1430 1
a 1431 1432 1
a 1432 1392 1
a 1432 1472 1
a 1432 1431 1
a 1432 1433 1
a 1433 1393 1
a 1433 1432 1
a 1435 1395 1
a 1435 1436 1
a 1436 1396 1
a 1436 1476 1
a 1436 1435 1
a 1438 1398 1
a 1438 1478 1
a 1442 1402 1
a 1442 1482 1
a 1442 1443 1
a 1443 1403 1
a 1443 1442 1
a 1445 1485 1
a 1445 1446 1
a 1446 1406 1
a 1446 1486 1
a 1446 1445 1
a 1446 1447 1
a 1447 1407 1
a 1447 1487 1
a 1447 1446 1
a 1447 1448 1
a 1448 1408 1
a 1448 1447 1
a 1452 1412 1
a 1452 1492 1
a 1452 1453 1
a 1453 1413 1
a 1453 1493 1
a 1453 1452 1
a 1455 1495 1
a 1457 1497 1
a 1457 1458 1
a 1458 1418 1
a 1458 1457 1
a 1458 1459 1
a 1459 1419 1
a 1459 1458 1
a 1464 1424 1
a 1468 1428 1
a 1468 1508 1
a 1468 1469 1
a 1469 1429 1
a 1469 1468 1
a 1469 1470 1
a 1470 1430 1
a 1470 1510 1
a 1470 1469 1
a 1470 1471 1
a 1471 1431 1
a 1471 1511 1
a 1471 1470 1
a 1471 1472 1
a 1472 1432 1
a 1472 1471 1
a 1476 1436 1
a 1476 1516 1
a 1476 1477 1
a 1477 1517 1
a 1477 1476 1
a 1477 1478 1
a 1478 1438 1
a 1478 1518 1
a 1478 1477 1
a 1478 1479 1
a 1479 1478 1
a 1479 1480 1
a 1480 1520 1
a 1480 1479 1
a 1481 1521 1
a 1481 1482 1
a 1482 1442 1
a 1482 1522 1
a 1482 1481 1
a 1485 1445 1
a 1485 1525 1
a 1485 1486 1
a 1486 1446 1
a 1486 1526 1
a 1486 1485 1
a 1486 1487 1
a 1487 1447 1
a 1487 1527 1
a 1487 1486 1
a 1492 1452 1
a 1492 1532 1
a 1492 1493 1
a 1493 1453 1
a 1493 1492 1
a 1493 1494 1
a 1494 1493 1
a 1494 1495 1
a 1495 1455 1
a 1495 1535 1
a 1495 1494 1
a 1495 1496 1
a 1496 1495 1
a 1496 1497 1
a 1497 1457 1
a 1497 1537 1
a 1497 1496 1
a 1505 1545 1
a 1508 1468 1
a 1508 1548 1
a 1510 1470 1
a 1510 1511 1
a 1511 1471 1
a 1511 1551 1
a 1511 1510 1
a 1514 1554 1
a 1516 1476 1
a 1516 1556 1
a 1516 1517 1
a 1517 1477 1
a 1517 1516 1
a 1517 1518 1
a 1518 1478 1
a 1518 1558 1
a 1518 1517 1
a 1520 1480 1
a 1520 1560 1
a 1521 1481 1
a 1521 1561 1
a 1521 1522 1
a 1522 1482 1
a 1522 1521 1
a 1524 1564 1
a 1524 1525 1
a 1525 1485 1
a 1525 1565 1
a 1525 1524 1
a 1525 1526 1
a 1526 1486 1
a 1526 1566 1
a 1526 1525 1
a 1526 1527 1
a 1527 1487 1
a 1527 1567 1
a 1527 1526 1
a 1527 1528 1
a 1528 1527 1
a 1532 1492 1
a 1532 1572 1
a 1535 1495 1
a 1535 1575 1
a 1537 1497 1
a 1537 1577 1
a 1537 1538 1
a 1538 1578 1
a 1538 1537 1
a 1538 1539 1
a 1539 1579 1
a 1539 1538 1
a 1541 1542 1
a 1542 1582 1
a 1542 1541 1
a 1544 1584 1
a 1544 1545 1
a 1545 1505 1
a 1545 1544 1
a 1545 1546 1
a 1546 1545 1
a 1548 1508 1
a 1548 1588 1
a 1548 1549 1
a 1549 1548 1
a 1551 1511 1
a 1551 1552 1
a 1552 1592 1
a 1552 1551 1
a 1554 1514 1
a 1554 1594 1
a 1554 1555 1
a 1555 1554 1
a 1555 1556 1
a 1556 1516 1
a 1556 1596 1
a 1556 1555 1
a 1558 1518 1
a 1558 1598 1
a 1560 1520 1
a 1560 1600 1
a 1561 1521 1
a 1563 1564 1
a 1564 1524 1
a 1564 1563 1
a 1564 1565 1
a 1565 1525 1
a 1565 1564 1
a 1565 1566 1
a 1566 1526 1
a 1566 1565 1
a 1566 1567 1
a 1567 1527 1
a 1567 1566 1
a 1572 1532 1
a 1575 1535 1
a 1575 1576 1
a 1576 1575 1
a 1576 1577 1
a 1577 1537 1
a 1577 1576 1
a 1577 1578 1
a 1578 1538 1
a 1578 1577 1
a 1578 1579 1
a 1579 1539 1
a 1579 1578 1
a 1579 1580 1
a 1580 1579 1
a 1582 1542 1
a 1582 1583 1
a 1583 1582 1
a 1583 1584 1
a 1584 1544 1
a 1584 1583 1
a 1588 1548 1
a 1592 1552 1
a 1592 1593 1
a 1593 1592 1
a 1593 1594 1
a 1594 1554 1
a 1594 1593 1
a 1596 1556 1
a 1596 1597 1
a 1597 1596 1
a 1597 1598 1
a 1598 1558 1
a 1598 1597 1
a 1600 1560 1
